N = 14;
H = 5;
T = 2;

avail = array3d(1..N, 1..H, 1..T, [5, 9, 0, 6, 1, 5, 7, 6, 0, 1, 6, 5, 1, 9, 3, 10, 7, 3, 4, 0, 9, 5, 0, 10, 2, 3, 0, 4, 1, 1, 4, 2, 6, 2, 6, 10, 5, 10, 5, 1, 0, 6, 3, 3, 2, 4, 2, 8, 1, 2, 1, 10, 9, 0, 3, 10, 8, 4, 7, 2, 0, 5, 6, 10, 4, 7, 6, 2, 1, 1, 1, 1, 9, 7, 5, 0, 2, 6, 2, 2, 5, 3, 10, 9, 9, 0, 2, 5, 4, 4, 8, 6, 3, 4, 2, 0, 4, 5, 5, 8, 6, 0, 7, 2, 7, 4, 9, 10, 2, 10, 6, 6, 4, 3, 3, 10, 5, 6, 5, 5, 5, 4, 6, 5, 0, 2, 1, 8, 4, 7, 1, 0, 3, 7, 9, 2, 9, 4, 8, 9]);

r = array2d(1..H, 1..T, [3, 4, 2, 4, 4, 1, 4, 2, 4, 4]);
